Route #1: 75 93
Route #2: 8 17
Route #3: 66 84 90 68
Route #4: 34 64 96 48 26 47 38
Route #5: 57 72 36 29 43 45 2 7
Route #6: 54 70 1
Route #7: 32 33 53 73 95 24
Route #8: 4 13 74
Route #9: 71 62 99 98 89
Route #10: 14 49 6 37 87
Route #11: 82 60 59
Route #12: 79 11 85 30
Route #13: 3 77 63
Route #14: 35 46 31
Route #15: 40 88 67 44
Route #16: 19 97 27
Route #17: 52 91 50
Route #18: 69 16 55 76
Route #19: 23 61 100
Route #20: 25 65 78 42 28
Route #21: 86 9 92
Route #22: 39 10 18
Route #23: 58 12 5
Route #24: 81 51 83
Route #25: 21 56 94 80
Route #26: 15 22 41 20
Cost 27591.0000
Time 16.0001